(set-logic QF_LRA)
(declare-fun X0 () Real )
(declare-fun Y0 () Real )
(declare-fun X1 () Real )
(declare-fun Y1 () Real )
(declare-fun X2 () Real )
(declare-fun Y2 () Real )
(declare-fun X3 () Real )
(declare-fun Y3 () Real )
(declare-fun X4 () Real )
(declare-fun Y4 () Real )
(declare-fun X5 () Real )
(declare-fun Y5 () Real )
(declare-fun X6 () Real )
(declare-fun Y6 () Real )
(declare-fun X7 () Real )
(declare-fun Y7 () Real )
(declare-fun X8 () Real )
(declare-fun Y8 () Real )
(declare-fun X9 () Real )
(declare-fun Y9 () Real )
(declare-fun X10 () Real )
(declare-fun Y10 () Real )
(declare-fun X11 () Real )
(declare-fun Y11 () Real )
(declare-fun X12 () Real )
(declare-fun Y12 () Real )
(declare-fun X13 () Real )
(declare-fun Y13 () Real )
(declare-fun X14 () Real )
(declare-fun Y14 () Real )
(declare-fun Z () Real )
(assert ( and  
( or ( <= ( + X0 73 ) X1 )  ( <= ( + X1 77 ) X0 )  ( <= ( + Y0 84 ) Y1 )  ( <= ( + Y1 18 ) Y0 )  )
( or ( <= ( + X0 73 ) X2 )  ( <= ( + X2 1 ) X0 )  ( <= ( + Y0 84 ) Y2 )  ( <= ( + Y2 80 ) Y0 )  )
( or ( <= ( + X0 73 ) X3 )  ( <= ( + X3 29 ) X0 )  ( <= ( + Y0 84 ) Y3 )  ( <= ( + Y3 74 ) Y0 )  )
( or ( <= ( + X0 73 ) X4 )  ( <= ( + X4 18 ) X0 )  ( <= ( + Y0 84 ) Y4 )  ( <= ( + Y4 60 ) Y0 )  )
( or ( <= ( + X0 73 ) X5 )  ( <= ( + X5 12 ) X0 )  ( <= ( + Y0 84 ) Y5 )  ( <= ( + Y5 88 ) Y0 )  )
( or ( <= ( + X0 73 ) X6 )  ( <= ( + X6 34 ) X0 )  ( <= ( + Y0 84 ) Y6 )  ( <= ( + Y6 98 ) Y0 )  )
( or ( <= ( + X0 73 ) X7 )  ( <= ( + X7 67 ) X0 )  ( <= ( + Y0 84 ) Y7 )  ( <= ( + Y7 98 ) Y0 )  )
( or ( <= ( + X0 73 ) X8 )  ( <= ( + X8 3 ) X0 )  ( <= ( + Y0 84 ) Y8 )  ( <= ( + Y8 47 ) Y0 )  )
( or ( <= ( + X0 73 ) X9 )  ( <= ( + X9 2 ) X0 )  ( <= ( + Y0 84 ) Y9 )  ( <= ( + Y9 60 ) Y0 )  )
( or ( <= ( + X0 73 ) X10 )  ( <= ( + X10 3 ) X0 )  ( <= ( + Y0 84 ) Y10 )  ( <= ( + Y10 77 ) Y0 )  )
( or ( <= ( + X0 73 ) X11 )  ( <= ( + X11 2 ) X0 )  ( <= ( + Y0 84 ) Y11 )  ( <= ( + Y11 70 ) Y0 )  )
( or ( <= ( + X0 73 ) X12 )  ( <= ( + X12 72 ) X0 )  ( <= ( + Y0 84 ) Y12 )  ( <= ( + Y12 29 ) Y0 )  )
( or ( <= ( + X0 73 ) X13 )  ( <= ( + X13 81 ) X0 )  ( <= ( + Y0 84 ) Y13 )  ( <= ( + Y13 93 ) Y0 )  )
( or ( <= ( + X0 73 ) X14 )  ( <= ( + X14 55 ) X0 )  ( <= ( + Y0 84 ) Y14 )  ( <= ( + Y14 51 ) Y0 )  )
( or ( <= ( + X1 77 ) X2 )  ( <= ( + X2 1 ) X1 )  ( <= ( + Y1 18 ) Y2 )  ( <= ( + Y2 80 ) Y1 )  )
( or ( <= ( + X1 77 ) X3 )  ( <= ( + X3 29 ) X1 )  ( <= ( + Y1 18 ) Y3 )  ( <= ( + Y3 74 ) Y1 )  )
( or ( <= ( + X1 77 ) X4 )  ( <= ( + X4 18 ) X1 )  ( <= ( + Y1 18 ) Y4 )  ( <= ( + Y4 60 ) Y1 )  )
( or ( <= ( + X1 77 ) X5 )  ( <= ( + X5 12 ) X1 )  ( <= ( + Y1 18 ) Y5 )  ( <= ( + Y5 88 ) Y1 )  )
( or ( <= ( + X1 77 ) X6 )  ( <= ( + X6 34 ) X1 )  ( <= ( + Y1 18 ) Y6 )  ( <= ( + Y6 98 ) Y1 )  )
( or ( <= ( + X1 77 ) X7 )  ( <= ( + X7 67 ) X1 )  ( <= ( + Y1 18 ) Y7 )  ( <= ( + Y7 98 ) Y1 )  )
( or ( <= ( + X1 77 ) X8 )  ( <= ( + X8 3 ) X1 )  ( <= ( + Y1 18 ) Y8 )  ( <= ( + Y8 47 ) Y1 )  )
( or ( <= ( + X1 77 ) X9 )  ( <= ( + X9 2 ) X1 )  ( <= ( + Y1 18 ) Y9 )  ( <= ( + Y9 60 ) Y1 )  )
( or ( <= ( + X1 77 ) X10 )  ( <= ( + X10 3 ) X1 )  ( <= ( + Y1 18 ) Y10 )  ( <= ( + Y10 77 ) Y1 )  )
( or ( <= ( + X1 77 ) X11 )  ( <= ( + X11 2 ) X1 )  ( <= ( + Y1 18 ) Y11 )  ( <= ( + Y11 70 ) Y1 )  )
( or ( <= ( + X1 77 ) X12 )  ( <= ( + X12 72 ) X1 )  ( <= ( + Y1 18 ) Y12 )  ( <= ( + Y12 29 ) Y1 )  )
( or ( <= ( + X1 77 ) X13 )  ( <= ( + X13 81 ) X1 )  ( <= ( + Y1 18 ) Y13 )  ( <= ( + Y13 93 ) Y1 )  )
( or ( <= ( + X1 77 ) X14 )  ( <= ( + X14 55 ) X1 )  ( <= ( + Y1 18 ) Y14 )  ( <= ( + Y14 51 ) Y1 )  )
( or ( <= ( + X2 1 ) X3 )  ( <= ( + X3 29 ) X2 )  ( <= ( + Y2 80 ) Y3 )  ( <= ( + Y3 74 ) Y2 )  )
( or ( <= ( + X2 1 ) X4 )  ( <= ( + X4 18 ) X2 )  ( <= ( + Y2 80 ) Y4 )  ( <= ( + Y4 60 ) Y2 )  )
( or ( <= ( + X2 1 ) X5 )  ( <= ( + X5 12 ) X2 )  ( <= ( + Y2 80 ) Y5 )  ( <= ( + Y5 88 ) Y2 )  )
( or ( <= ( + X2 1 ) X6 )  ( <= ( + X6 34 ) X2 )  ( <= ( + Y2 80 ) Y6 )  ( <= ( + Y6 98 ) Y2 )  )
( or ( <= ( + X2 1 ) X7 )  ( <= ( + X7 67 ) X2 )  ( <= ( + Y2 80 ) Y7 )  ( <= ( + Y7 98 ) Y2 )  )
( or ( <= ( + X2 1 ) X8 )  ( <= ( + X8 3 ) X2 )  ( <= ( + Y2 80 ) Y8 )  ( <= ( + Y8 47 ) Y2 )  )
( or ( <= ( + X2 1 ) X9 )  ( <= ( + X9 2 ) X2 )  ( <= ( + Y2 80 ) Y9 )  ( <= ( + Y9 60 ) Y2 )  )
( or ( <= ( + X2 1 ) X10 )  ( <= ( + X10 3 ) X2 )  ( <= ( + Y2 80 ) Y10 )  ( <= ( + Y10 77 ) Y2 )  )
( or ( <= ( + X2 1 ) X11 )  ( <= ( + X11 2 ) X2 )  ( <= ( + Y2 80 ) Y11 )  ( <= ( + Y11 70 ) Y2 )  )
( or ( <= ( + X2 1 ) X12 )  ( <= ( + X12 72 ) X2 )  ( <= ( + Y2 80 ) Y12 )  ( <= ( + Y12 29 ) Y2 )  )
( or ( <= ( + X2 1 ) X13 )  ( <= ( + X13 81 ) X2 )  ( <= ( + Y2 80 ) Y13 )  ( <= ( + Y13 93 ) Y2 )  )
( or ( <= ( + X2 1 ) X14 )  ( <= ( + X14 55 ) X2 )  ( <= ( + Y2 80 ) Y14 )  ( <= ( + Y14 51 ) Y2 )  )
( or ( <= ( + X3 29 ) X4 )  ( <= ( + X4 18 ) X3 )  ( <= ( + Y3 74 ) Y4 )  ( <= ( + Y4 60 ) Y3 )  )
( or ( <= ( + X3 29 ) X5 )  ( <= ( + X5 12 ) X3 )  ( <= ( + Y3 74 ) Y5 )  ( <= ( + Y5 88 ) Y3 )  )
( or ( <= ( + X3 29 ) X6 )  ( <= ( + X6 34 ) X3 )  ( <= ( + Y3 74 ) Y6 )  ( <= ( + Y6 98 ) Y3 )  )
( or ( <= ( + X3 29 ) X7 )  ( <= ( + X7 67 ) X3 )  ( <= ( + Y3 74 ) Y7 )  ( <= ( + Y7 98 ) Y3 )  )
( or ( <= ( + X3 29 ) X8 )  ( <= ( + X8 3 ) X3 )  ( <= ( + Y3 74 ) Y8 )  ( <= ( + Y8 47 ) Y3 )  )
( or ( <= ( + X3 29 ) X9 )  ( <= ( + X9 2 ) X3 )  ( <= ( + Y3 74 ) Y9 )  ( <= ( + Y9 60 ) Y3 )  )
( or ( <= ( + X3 29 ) X10 )  ( <= ( + X10 3 ) X3 )  ( <= ( + Y3 74 ) Y10 )  ( <= ( + Y10 77 ) Y3 )  )
( or ( <= ( + X3 29 ) X11 )  ( <= ( + X11 2 ) X3 )  ( <= ( + Y3 74 ) Y11 )  ( <= ( + Y11 70 ) Y3 )  )
( or ( <= ( + X3 29 ) X12 )  ( <= ( + X12 72 ) X3 )  ( <= ( + Y3 74 ) Y12 )  ( <= ( + Y12 29 ) Y3 )  )
( or ( <= ( + X3 29 ) X13 )  ( <= ( + X13 81 ) X3 )  ( <= ( + Y3 74 ) Y13 )  ( <= ( + Y13 93 ) Y3 )  )
( or ( <= ( + X3 29 ) X14 )  ( <= ( + X14 55 ) X3 )  ( <= ( + Y3 74 ) Y14 )  ( <= ( + Y14 51 ) Y3 )  )
( or ( <= ( + X4 18 ) X5 )  ( <= ( + X5 12 ) X4 )  ( <= ( + Y4 60 ) Y5 )  ( <= ( + Y5 88 ) Y4 )  )
( or ( <= ( + X4 18 ) X6 )  ( <= ( + X6 34 ) X4 )  ( <= ( + Y4 60 ) Y6 )  ( <= ( + Y6 98 ) Y4 )  )
( or ( <= ( + X4 18 ) X7 )  ( <= ( + X7 67 ) X4 )  ( <= ( + Y4 60 ) Y7 )  ( <= ( + Y7 98 ) Y4 )  )
( or ( <= ( + X4 18 ) X8 )  ( <= ( + X8 3 ) X4 )  ( <= ( + Y4 60 ) Y8 )  ( <= ( + Y8 47 ) Y4 )  )
( or ( <= ( + X4 18 ) X9 )  ( <= ( + X9 2 ) X4 )  ( <= ( + Y4 60 ) Y9 )  ( <= ( + Y9 60 ) Y4 )  )
( or ( <= ( + X4 18 ) X10 )  ( <= ( + X10 3 ) X4 )  ( <= ( + Y4 60 ) Y10 )  ( <= ( + Y10 77 ) Y4 )  )
( or ( <= ( + X4 18 ) X11 )  ( <= ( + X11 2 ) X4 )  ( <= ( + Y4 60 ) Y11 )  ( <= ( + Y11 70 ) Y4 )  )
( or ( <= ( + X4 18 ) X12 )  ( <= ( + X12 72 ) X4 )  ( <= ( + Y4 60 ) Y12 )  ( <= ( + Y12 29 ) Y4 )  )
( or ( <= ( + X4 18 ) X13 )  ( <= ( + X13 81 ) X4 )  ( <= ( + Y4 60 ) Y13 )  ( <= ( + Y13 93 ) Y4 )  )
( or ( <= ( + X4 18 ) X14 )  ( <= ( + X14 55 ) X4 )  ( <= ( + Y4 60 ) Y14 )  ( <= ( + Y14 51 ) Y4 )  )
( or ( <= ( + X5 12 ) X6 )  ( <= ( + X6 34 ) X5 )  ( <= ( + Y5 88 ) Y6 )  ( <= ( + Y6 98 ) Y5 )  )
( or ( <= ( + X5 12 ) X7 )  ( <= ( + X7 67 ) X5 )  ( <= ( + Y5 88 ) Y7 )  ( <= ( + Y7 98 ) Y5 )  )
( or ( <= ( + X5 12 ) X8 )  ( <= ( + X8 3 ) X5 )  ( <= ( + Y5 88 ) Y8 )  ( <= ( + Y8 47 ) Y5 )  )
( or ( <= ( + X5 12 ) X9 )  ( <= ( + X9 2 ) X5 )  ( <= ( + Y5 88 ) Y9 )  ( <= ( + Y9 60 ) Y5 )  )
( or ( <= ( + X5 12 ) X10 )  ( <= ( + X10 3 ) X5 )  ( <= ( + Y5 88 ) Y10 )  ( <= ( + Y10 77 ) Y5 )  )
( or ( <= ( + X5 12 ) X11 )  ( <= ( + X11 2 ) X5 )  ( <= ( + Y5 88 ) Y11 )  ( <= ( + Y11 70 ) Y5 )  )
( or ( <= ( + X5 12 ) X12 )  ( <= ( + X12 72 ) X5 )  ( <= ( + Y5 88 ) Y12 )  ( <= ( + Y12 29 ) Y5 )  )
( or ( <= ( + X5 12 ) X13 )  ( <= ( + X13 81 ) X5 )  ( <= ( + Y5 88 ) Y13 )  ( <= ( + Y13 93 ) Y5 )  )
( or ( <= ( + X5 12 ) X14 )  ( <= ( + X14 55 ) X5 )  ( <= ( + Y5 88 ) Y14 )  ( <= ( + Y14 51 ) Y5 )  )
( or ( <= ( + X6 34 ) X7 )  ( <= ( + X7 67 ) X6 )  ( <= ( + Y6 98 ) Y7 )  ( <= ( + Y7 98 ) Y6 )  )
( or ( <= ( + X6 34 ) X8 )  ( <= ( + X8 3 ) X6 )  ( <= ( + Y6 98 ) Y8 )  ( <= ( + Y8 47 ) Y6 )  )
( or ( <= ( + X6 34 ) X9 )  ( <= ( + X9 2 ) X6 )  ( <= ( + Y6 98 ) Y9 )  ( <= ( + Y9 60 ) Y6 )  )
( or ( <= ( + X6 34 ) X10 )  ( <= ( + X10 3 ) X6 )  ( <= ( + Y6 98 ) Y10 )  ( <= ( + Y10 77 ) Y6 )  )
( or ( <= ( + X6 34 ) X11 )  ( <= ( + X11 2 ) X6 )  ( <= ( + Y6 98 ) Y11 )  ( <= ( + Y11 70 ) Y6 )  )
( or ( <= ( + X6 34 ) X12 )  ( <= ( + X12 72 ) X6 )  ( <= ( + Y6 98 ) Y12 )  ( <= ( + Y12 29 ) Y6 )  )
( or ( <= ( + X6 34 ) X13 )  ( <= ( + X13 81 ) X6 )  ( <= ( + Y6 98 ) Y13 )  ( <= ( + Y13 93 ) Y6 )  )
( or ( <= ( + X6 34 ) X14 )  ( <= ( + X14 55 ) X6 )  ( <= ( + Y6 98 ) Y14 )  ( <= ( + Y14 51 ) Y6 )  )
( or ( <= ( + X7 67 ) X8 )  ( <= ( + X8 3 ) X7 )  ( <= ( + Y7 98 ) Y8 )  ( <= ( + Y8 47 ) Y7 )  )
( or ( <= ( + X7 67 ) X9 )  ( <= ( + X9 2 ) X7 )  ( <= ( + Y7 98 ) Y9 )  ( <= ( + Y9 60 ) Y7 )  )
( or ( <= ( + X7 67 ) X10 )  ( <= ( + X10 3 ) X7 )  ( <= ( + Y7 98 ) Y10 )  ( <= ( + Y10 77 ) Y7 )  )
( or ( <= ( + X7 67 ) X11 )  ( <= ( + X11 2 ) X7 )  ( <= ( + Y7 98 ) Y11 )  ( <= ( + Y11 70 ) Y7 )  )
( or ( <= ( + X7 67 ) X12 )  ( <= ( + X12 72 ) X7 )  ( <= ( + Y7 98 ) Y12 )  ( <= ( + Y12 29 ) Y7 )  )
( or ( <= ( + X7 67 ) X13 )  ( <= ( + X13 81 ) X7 )  ( <= ( + Y7 98 ) Y13 )  ( <= ( + Y13 93 ) Y7 )  )
( or ( <= ( + X7 67 ) X14 )  ( <= ( + X14 55 ) X7 )  ( <= ( + Y7 98 ) Y14 )  ( <= ( + Y14 51 ) Y7 )  )
( or ( <= ( + X8 3 ) X9 )  ( <= ( + X9 2 ) X8 )  ( <= ( + Y8 47 ) Y9 )  ( <= ( + Y9 60 ) Y8 )  )
( or ( <= ( + X8 3 ) X10 )  ( <= ( + X10 3 ) X8 )  ( <= ( + Y8 47 ) Y10 )  ( <= ( + Y10 77 ) Y8 )  )
( or ( <= ( + X8 3 ) X11 )  ( <= ( + X11 2 ) X8 )  ( <= ( + Y8 47 ) Y11 )  ( <= ( + Y11 70 ) Y8 )  )
( or ( <= ( + X8 3 ) X12 )  ( <= ( + X12 72 ) X8 )  ( <= ( + Y8 47 ) Y12 )  ( <= ( + Y12 29 ) Y8 )  )
( or ( <= ( + X8 3 ) X13 )  ( <= ( + X13 81 ) X8 )  ( <= ( + Y8 47 ) Y13 )  ( <= ( + Y13 93 ) Y8 )  )
( or ( <= ( + X8 3 ) X14 )  ( <= ( + X14 55 ) X8 )  ( <= ( + Y8 47 ) Y14 )  ( <= ( + Y14 51 ) Y8 )  )
( or ( <= ( + X9 2 ) X10 )  ( <= ( + X10 3 ) X9 )  ( <= ( + Y9 60 ) Y10 )  ( <= ( + Y10 77 ) Y9 )  )
( or ( <= ( + X9 2 ) X11 )  ( <= ( + X11 2 ) X9 )  ( <= ( + Y9 60 ) Y11 )  ( <= ( + Y11 70 ) Y9 )  )
( or ( <= ( + X9 2 ) X12 )  ( <= ( + X12 72 ) X9 )  ( <= ( + Y9 60 ) Y12 )  ( <= ( + Y12 29 ) Y9 )  )
( or ( <= ( + X9 2 ) X13 )  ( <= ( + X13 81 ) X9 )  ( <= ( + Y9 60 ) Y13 )  ( <= ( + Y13 93 ) Y9 )  )
( or ( <= ( + X9 2 ) X14 )  ( <= ( + X14 55 ) X9 )  ( <= ( + Y9 60 ) Y14 )  ( <= ( + Y14 51 ) Y9 )  )
( or ( <= ( + X10 3 ) X11 )  ( <= ( + X11 2 ) X10 )  ( <= ( + Y10 77 ) Y11 )  ( <= ( + Y11 70 ) Y10 )  )
( or ( <= ( + X10 3 ) X12 )  ( <= ( + X12 72 ) X10 )  ( <= ( + Y10 77 ) Y12 )  ( <= ( + Y12 29 ) Y10 )  )
( or ( <= ( + X10 3 ) X13 )  ( <= ( + X13 81 ) X10 )  ( <= ( + Y10 77 ) Y13 )  ( <= ( + Y13 93 ) Y10 )  )
( or ( <= ( + X10 3 ) X14 )  ( <= ( + X14 55 ) X10 )  ( <= ( + Y10 77 ) Y14 )  ( <= ( + Y14 51 ) Y10 )  )
( or ( <= ( + X11 2 ) X12 )  ( <= ( + X12 72 ) X11 )  ( <= ( + Y11 70 ) Y12 )  ( <= ( + Y12 29 ) Y11 )  )
( or ( <= ( + X11 2 ) X13 )  ( <= ( + X13 81 ) X11 )  ( <= ( + Y11 70 ) Y13 )  ( <= ( + Y13 93 ) Y11 )  )
( or ( <= ( + X11 2 ) X14 )  ( <= ( + X14 55 ) X11 )  ( <= ( + Y11 70 ) Y14 )  ( <= ( + Y14 51 ) Y11 )  )
( or ( <= ( + X12 72 ) X13 )  ( <= ( + X13 81 ) X12 )  ( <= ( + Y12 29 ) Y13 )  ( <= ( + Y13 93 ) Y12 )  )
( or ( <= ( + X12 72 ) X14 )  ( <= ( + X14 55 ) X12 )  ( <= ( + Y12 29 ) Y14 )  ( <= ( + Y14 51 ) Y12 )  )
( or ( <= ( + X13 81 ) X14 )  ( <= ( + X14 55 ) X13 )  ( <= ( + Y13 93 ) Y14 )  ( <= ( + Y14 51 ) Y13 )  )
( >= X0 0)
( <= ( + X0 73) Z)
( >= Y0 0)
( <= ( + Y0 84 ) 100)
( >= X1 0)
( <= ( + X1 77) Z)
( >= Y1 0)
( <= ( + Y1 18 ) 100)
( >= X2 0)
( <= ( + X2 1) Z)
( >= Y2 0)
( <= ( + Y2 80 ) 100)
( >= X3 0)
( <= ( + X3 29) Z)
( >= Y3 0)
( <= ( + Y3 74 ) 100)
( >= X4 0)
( <= ( + X4 18) Z)
( >= Y4 0)
( <= ( + Y4 60 ) 100)
( >= X5 0)
( <= ( + X5 12) Z)
( >= Y5 0)
( <= ( + Y5 88 ) 100)
( >= X6 0)
( <= ( + X6 34) Z)
( >= Y6 0)
( <= ( + Y6 98 ) 100)
( >= X7 0)
( <= ( + X7 67) Z)
( >= Y7 0)
( <= ( + Y7 98 ) 100)
( >= X8 0)
( <= ( + X8 3) Z)
( >= Y8 0)
( <= ( + Y8 47 ) 100)
( >= X9 0)
( <= ( + X9 2) Z)
( >= Y9 0)
( <= ( + Y9 60 ) 100)
( >= X10 0)
( <= ( + X10 3) Z)
( >= Y10 0)
( <= ( + Y10 77 ) 100)
( >= X11 0)
( <= ( + X11 2) Z)
( >= Y11 0)
( <= ( + Y11 70 ) 100)
( >= X12 0)
( <= ( + X12 72) Z)
( >= Y12 0)
( <= ( + Y12 29 ) 100)
( >= X13 0)
( <= ( + X13 81) Z)
( >= Y13 0)
( <= ( + Y13 93 ) 100)
( >= X14 0)
( <= ( + X14 55) Z)
( >= Y14 0)
( <= ( + Y14 51 ) 100)
) )
(minimize Z)
(check-sat)
